n_res = 4;
rcap = [14, 13, 45, 46];
rtype = [1, 1, 2, 2];
n_tasks = 10;
modes = [ {1, 2, 3}, {4, 5, 6}, {7, 8, 9}, {10, 11, 12}, {13, 14, 15}, {16, 17, 18}, {19, 20, 21}, {22, 23, 24}, {25, 26, 27}, {28, 29, 30} ];
succ = [ {4, 5}, {8}, {6, 7, 9}, {9}, {8, 9}, {8, 10}, {10}, {}, {}, {} ];
n_opt = 30;
dur = [4, 5, 7, 4, 8, 9, 2, 4, 10, 1, 1, 3, 1, 6, 7, 4, 10, 10, 1, 5, 6, 1, 9, 9, 4, 6, 8, 4, 7, 10];
rreq = [|  0,  0,  2,  0,  0,  0,  7,  7,  6,  0,  0,  0,  7,  0,  0,  0,  0,  0,  8,  0,  0,  6,  1,  0,  0,  0, 10,  6,  4,  0
        |  2,  1,  0,  7,  4,  3,  0,  0,  0,  4,  4,  2,  0,  6,  5,  6,  5,  4,  0,  5,  3,  0,  0,  4,  4,  2,  0,  0,  0,  1
        |  5,  3,  1,  7,  7,  6, 10,  7,  7,  8,  7,  2,  5,  5,  2,  8,  1,  3,  7,  4,  3,  8,  7,  7,  8,  7,  6,  5,  4,  3
        |  8,  6,  4,  6,  6,  5,  4,  4,  3,  7,  8,  4,  9,  7,  5,  7,  2,  1,  7,  5,  3,  7,  5,  5,  4,  4,  3,  9,  8,  7 |];
